unknown
(model
; cardinality of BoundSet is 2
(declare-sort BoundSet 0)
; rep: @uc_BoundSet_0
; rep: @uc_BoundSet_1
; cardinality of UnboundSet is 1
(declare-sort UnboundSet 0)
(declare-fun groundTerm_3 () UnboundSet)
(define-fun IsMan ((BOUND_VARIABLE_404 BoundSet)) Bool true)
(define-fun Scales ((BOUND_VARIABLE_411 BoundSet) (BOUND_VARIABLE_412 BoundSet)) Bool true)
(define-fun IsRockClimbing ((BOUND_VARIABLE_404 BoundSet)) Bool false)
)
sat
(model
; cardinality of BoundSet is 1
(declare-sort BoundSet 0)
; rep: @uc_BoundSet_0
; cardinality of UnboundSet is 1
(declare-sort UnboundSet 0)
(declare-fun groundTerm_5 () UnboundSet)
(define-fun IsMan ((BOUND_VARIABLE_422 BoundSet)) Bool true)
(define-fun Scales ((BOUND_VARIABLE_429 BoundSet) (BOUND_VARIABLE_430 BoundSet)) Bool true)
(define-fun IsRockClimbing ((BOUND_VARIABLE_422 BoundSet)) Bool false)
)
